instances/knapsack/discrete_knapsack_uncertainty/knapsack_150_8.lp
\ Model knapsack_150_8
\ LP format - for model browsing. Use MPS format to capture full model detail.
\ Signature: 0x1d3d114bfbe69093
Minimize
  - 48 x[0] - 80 x[1] - 54 x[2] - 18 x[3] - 75 x[4] - 3 x[5] - 83 x[6]
   - 61 x[7] - 60 x[8] - 20 x[9] - 93 x[10] - 33 x[11] - 73 x[12]
   - 32 x[13] - 93 x[14] - 54 x[15] - 68 x[16] - 8 x[17] - 32 x[18]
   - 91 x[19] - 19 x[20] - 25 x[21] - 30 x[22] - 78 x[23] - 91 x[24]
   - 88 x[25] - 50 x[26] - 69 x[27] - 64 x[28] - 58 x[29] - 19 x[30]
   - 74 x[31] - 2 x[32] - x[33] - 89 x[34] - 35 x[35] - 87 x[36] - 97 x[37]
   - 12 x[38] - 89 x[39] - 98 x[40] - 43 x[41] - 31 x[42] - 17 x[43]
   - 36 x[44] - 25 x[45] - 42 x[46] - 94 x[47] - 10 x[48] - 27 x[49]
   - 53 x[50] - 12 x[51] - 65 x[52] - 63 x[53] - 18 x[54] - 24 x[55]
   - 28 x[56] - 6 x[57] - 42 x[58] - 45 x[59] - 2 x[60] - 48 x[61]
   - 47 x[62] - 95 x[63] - 20 x[64] - 63 x[65] - 39 x[66] - 35 x[67]
   - 82 x[68] - 15 x[69] - 51 x[70] - 33 x[71] - 43 x[72] - 31 x[73]
   - 92 x[74] - 100 x[75] - 56 x[76] - 51 x[77] - 14 x[78] - 73 x[79]
   - 49 x[80] - 88 x[81] - 75 x[82] - 48 x[83] - 71 x[84] - 14 x[85]
   - 32 x[86] - 97 x[87] - 82 x[88] - 80 x[89] - 56 x[90] - 75 x[91]
   - 71 x[92] - 34 x[93] - 98 x[94] - 36 x[95] - 7 x[96] - 18 x[97]
   - 42 x[98] - 94 x[99] - 34 x[100] - 83 x[101] - 36 x[102] - 75 x[103]
   - 37 x[104] - 25 x[105] - 28 x[106] - 74 x[107] - 52 x[108] - 98 x[109]
   - 51 x[110] - 52 x[111] - 59 x[112] - 13 x[113] - 56 x[114] - 59 x[115]
   - 33 x[116] - 43 x[117] - 32 x[118] - 33 x[119] - 11 x[120] - 36 x[121]
   - 100 x[122] - 89 x[123] - 77 x[124] - 78 x[125] - 82 x[126] - 44 x[127]
   - 53 x[128] - 30 x[129] - 76 x[130] - 29 x[131] - 34 x[132] - 52 x[133]
   - 47 x[134] - 85 x[135] - 74 x[136] - 55 x[137] - 21 x[138] - 51 x[139]
   - 40 x[140] - 58 x[141] - 3 x[142] - 69 x[143] - 34 x[144] - 68 x[145]
   - 23 x[146] - 45 x[147] - 42 x[148] - 64 x[149]
Subject To
 primal_upper: 43 x[0] + 16 x[1] + 62 x[2] + 83 x[3] + 96 x[4] + 13 x[5]
   + 93 x[6] + 19 x[7] + 69 x[8] + 98 x[9] + 71 x[10] + 11 x[11]
   + 100 x[12] + 8 x[13] + 68 x[14] + 44 x[15] + 53 x[16] + 92 x[17]
   + x[18] + 22 x[19] + 93 x[20] + 91 x[21] + 44 x[22] + 98 x[23]
   + 56 x[24] + 60 x[25] + 54 x[26] + 67 x[27] + 57 x[28] + 23 x[29]
   + x[30] + 67 x[31] + 55 x[32] + 29 x[33] + 92 x[34] + 57 x[35]
   + 40 x[36] + 64 x[37] + 12 x[38] + 50 x[39] + 31 x[40] + 45 x[41]
   + 38 x[42] + 45 x[43] + 91 x[44] + 14 x[45] + 81 x[46] + x[47]
   + 35 x[48] + 32 x[49] + 54 x[50] + 68 x[51] + 41 x[52] + 36 x[53]
   + 8 x[54] + 63 x[55] + 53 x[56] + 42 x[57] + 4 x[58] + 58 x[59]
   + 36 x[60] + 14 x[61] + 15 x[62] + 98 x[63] + 55 x[64] + 8 x[65]
   + 40 x[66] + 34 x[67] + 28 x[68] + 77 x[69] + 33 x[70] + 53 x[71]
   + 42 x[72] + 79 x[73] + 75 x[74] + 68 x[75] + 62 x[76] + 47 x[77]
   + 96 x[78] + 10 x[79] + x[80] + 37 x[81] + 10 x[82] + 65 x[83]
   + 29 x[84] + 81 x[85] + 55 x[86] + 4 x[87] + 94 x[88] + 71 x[89]
   + 20 x[90] + 64 x[91] + 24 x[92] + 11 x[93] + 72 x[94] + 45 x[95]
   + 69 x[96] + 88 x[97] + 72 x[98] + 8 x[99] + 89 x[100] + 40 x[101]
   + 82 x[102] + 20 x[103] + 97 x[104] + 42 x[105] + 31 x[106] + 30 x[107]
   + 82 x[108] + 65 x[109] + 54 x[110] + 83 x[111] + 69 x[112] + 49 x[113]
   + 57 x[114] + 62 x[115] + 35 x[116] + 81 x[117] + 41 x[118] + 96 x[119]
   + 55 x[120] + 16 x[121] + 83 x[122] + 82 x[123] + 85 x[124] + 62 x[125]
   + 63 x[126] + 27 x[127] + 98 x[128] + 63 x[129] + 77 x[130] + 37 x[131]
   + 54 x[132] + 72 x[133] + 88 x[134] + 62 x[135] + 73 x[136] + 2 x[137]
   + 89 x[138] + 28 x[139] + 67 x[140] + 80 x[141] + 27 x[142] + 27 x[143]
   + 93 x[144] + 74 x[145] + 42 x[146] + 15 x[147] + 68 x[148] + 66 x[149]
   + 4.3 r[0] + 1.6 r[1] + 6.2 r[2] + 8.3 r[3] + 9.6 r[4] + 1.3 r[5]
   + 9.3 r[6] + 1.9 r[7] + 6.9 r[8] + 9.8 r[9] + 7.1 r[10] + 1.1 r[11]
   + 10 r[12] + 0.8 r[13] + 6.8 r[14] + 4.4 r[15] + 5.3 r[16] + 9.2 r[17]
   + 0.1 r[18] + 2.2 r[19] + 9.3 r[20] + 9.1 r[21] + 4.4 r[22] + 9.8 r[23]
   + 5.6 r[24] + 6 r[25] + 5.4 r[26] + 6.7 r[27] + 5.7 r[28] + 2.3 r[29]
   + 0.1 r[30] + 6.7 r[31] + 5.5 r[32] + 2.9 r[33] + 9.2 r[34] + 5.7 r[35]
   + 4 r[36] + 6.4 r[37] + 1.2 r[38] + 5 r[39] + 3.1 r[40] + 4.5 r[41]
   + 3.8 r[42] + 4.5 r[43] + 9.1 r[44] + 1.4 r[45] + 8.1 r[46] + 0.1 r[47]
   + 3.5 r[48] + 3.2 r[49] + 5.4 r[50] + 6.8 r[51] + 4.1 r[52] + 3.6 r[53]
   + 0.8 r[54] + 6.3 r[55] + 5.3 r[56] + 4.2 r[57] + 0.4 r[58] + 5.8 r[59]
   + 3.6 r[60] + 1.4 r[61] + 1.5 r[62] + 9.8 r[63] + 5.5 r[64] + 0.8 r[65]
   + 4 r[66] + 3.4 r[67] + 2.8 r[68] + 7.7 r[69] + 3.3 r[70] + 5.3 r[71]
   + 4.2 r[72] + 7.9 r[73] + 7.5 r[74] + 6.8 r[75] + 6.2 r[76] + 4.7 r[77]
   + 9.6 r[78] + r[79] + 0.1 r[80] + 3.7 r[81] + r[82] + 6.5 r[83]
   + 2.9 r[84] + 8.1 r[85] + 5.5 r[86] + 0.4 r[87] + 9.4 r[88] + 7.1 r[89]
   + 2 r[90] + 6.4 r[91] + 2.4 r[92] + 1.1 r[93] + 7.2 r[94] + 4.5 r[95]
   + 6.9 r[96] + 8.8 r[97] + 7.2 r[98] + 0.8 r[99] + 8.9 r[100] + 4 r[101]
   + 8.2 r[102] + 2 r[103] + 9.7 r[104] + 4.2 r[105] + 3.1 r[106]
   + 3 r[107] + 8.2 r[108] + 6.5 r[109] + 5.4 r[110] + 8.3 r[111]
   + 6.9 r[112] + 4.9 r[113] + 5.7 r[114] + 6.2 r[115] + 3.5 r[116]
   + 8.1 r[117] + 4.1 r[118] + 9.6 r[119] + 5.5 r[120] + 1.6 r[121]
   + 8.3 r[122] + 8.2 r[123] + 8.5 r[124] + 6.2 r[125] + 6.3 r[126]
   + 2.7 r[127] + 9.8 r[128] + 6.3 r[129] + 7.7 r[130] + 3.7 r[131]
   + 5.4 r[132] + 7.2 r[133] + 8.8 r[134] + 6.2 r[135] + 7.3 r[136]
   + 0.2 r[137] + 8.9 r[138] + 2.8 r[139] + 6.7 r[140] + 8 r[141]
   + 2.7 r[142] + 2.7 r[143] + 9.3 r[144] + 7.4 r[145] + 4.2 r[146]
   + 1.5 r[147] + 6.8 r[148] + 6.6 r[149] <= 750
 primal_lower: 0.1427813595958222 x[0] + 2.34141346710347 x[1]
   + 1.990947078516133 x[2] + 2.285115231606317 x[3]
   + 1.230027253729282 x[4] + 1.110945844773004 x[5]
   + 0.033477369197544 x[6] + 2.729494160079619 x[7]
   + 0.652637115594754 x[8] + 3.801753443252853 x[9]
   + 1.687109929704603 x[10] + 0.7755373147256448 x[11]
   + 3.952651758291874 x[12] + 3.65150074254604 x[13]
   + 1.491466297823996 x[14] + 4.651657278392999 x[15]
   + 1.028612856557878 x[16] + 2.941542856999187 x[17]
   + 3.007452186505905 x[18] + 4.483846263423152 x[19]
   + 2.610902679973016 x[20] + 4.133299703466447 x[21]
   + 0.5587979730351178 x[22] + 4.387592341552507 x[23]
   + 0.0648187555091288 x[24] + 2.581092389893698 x[25]
   + 3.902783932937986 x[26] + 4.534402427362256 x[27]
   + 3.669548871158145 x[28] + 3.266829786767405 x[29]
   + 1.819977906457823 x[30] + 4.567691462936671 x[31]
   + 2.264440865567876 x[32] + 4.122466715898327 x[33]
   + 2.196372787955187 x[34] + 4.339200546374202 x[35]
   + 0.8220379134259884 x[36] + 0.2150436394561486 x[37]
   + 2.333055663252176 x[38] + 0.7994183906694591 x[39]
   + 3.255174441067326 x[40] + 3.536704890746697 x[41]
   + 0.1676892208392545 x[42] + 0.722701413183934 x[43]
   + 0.1111131340262525 x[44] + 3.442682554875752 x[45]
   + 0.5116192709953347 x[46] + 4.008995991724206 x[47]
   + 2.4496988384913 x[48] + 2.400911068505725 x[49]
   + 3.664602514596524 x[50] + 3.78438328109856 x[51]
   + 0.6353830284535067 x[52] + 1.971191476489241 x[53]
   + 0.2537901557604364 x[54] + 2.753829842277077 x[55]
   + 2.590344255401315 x[56] + 0.1852992804450237 x[57]
   + 2.548427308041648 x[58] + 2.051390815794442 x[59]
   + 0.8712284376183359 x[60] + 2.660812759345219 x[61]
   + 1.646479953046678 x[62] + 2.223791923126899 x[63]
   + 0.6375520770586486 x[64] + 2.308474737489451 x[65]
   + 2.56722914069826 x[66] + 4.638554511660742 x[67]
   + 4.398496418552701 x[68] + 0.796836791248998 x[69]
   + 4.025295648461514 x[70] + 2.039246104251477 x[71]
   + 0.1409891991849742 x[72] + 1.21899792753147 x[73]
   + 1.718142375318302 x[74] + 0.4323960097830524 x[75]
   + 2.494734347399465 x[76] + 2.749417570327614 x[77]
   + 3.666626048252161 x[78] + 3.670840647240466 x[79]
   + 0.9919554061848881 x[80] + 4.636121933774913 x[81]
   + 0.2223096281694016 x[82] + 0.5988038364432375 x[83]
   + 1.976831080198915 x[84] + 2.963453675723148 x[85]
   + 0.8460146082497834 x[86] + 2.289101509462231 x[87]
   + 4.227014906004536 x[88] + 1.690857197665903 x[89]
   + 0.0804097859846666 x[90] + 0.5160951396872125 x[91]
   + 4.480447510371605 x[92] + 2.781815205613352 x[93]
   + 4.139155814519749 x[94] + 4.537094718730202 x[95]
   + 2.866078357781362 x[96] + 3.696728986802204 x[97]
   + 1.283678991292546 x[98] + 4.030502950870341 x[99]
   + 0.7702544911982528 x[100] + 2.415168898840134 x[101]
   + 3.019013528415071 x[102] + 2.918736338042885 x[103]
   + 1.091673707841366 x[104] + 1.121619499204504 x[105]
   + 2.119056781976075 x[106] + 3.020370464396312 x[107]
   + 1.391787256611094 x[108] + 0.3483340395622508 x[109]
   + 2.645809108425174 x[110] + 1.258057523975042 x[111]
   + 1.783108177341888 x[112] + 0.7801829659689793 x[113]
   + 2.873464725547848 x[114] + 2.659087601184149 x[115]
   + 2.357397795987836 x[116] + 4.613036337514227 x[117]
   + 1.711812666324209 x[118] + 3.295876670445771 x[119]
   + 4.204724652592154 x[120] + 4.000073480603857 x[121]
   + 4.409782659734537 x[122] + 2.211315206450386 x[123]
   + 2.438579131690353 x[124] + 4.630932281098613 x[125]
   + 1.943176217363721 x[126] + 1.655471574149456 x[127]
   + 0.3879626556751494 x[128] + 4.556278014997656 x[129]
   + 2.113813322448214 x[130] + 3.97686178370726 x[131]
   + 2.093213942250796 x[132] + 4.548098414684228 x[133]
   + 2.737462255694104 x[134] + 1.265488397600711 x[135]
   + 0.9563275460290903 x[136] + 2.444902670040704 x[137]
   + 0.622091646808846 x[138] + 0.029039496221577 x[139]
   + 2.307431210952815 x[140] + 3.724609373323405 x[141]
   + 3.47534821188063 x[142] + 1.251511801124169 x[143]
   + 2.250662379930143 x[144] + 1.812605788595975 x[145]
   + 4.458618677974119 x[146] + 0.3295296657118935 x[147]
   + 3.327662683788008 x[148] + 1.04828730993 x[149] + 23 u[0] + 84 u[1]
   + 6 u[2] + 67 u[3] + 4 u[4] + 9 u[5] + 37 u[6] + 11 u[7] + 61 u[8]
   + 86 u[9] + 23 u[10] + 67 u[11] + 96 u[12] + 40 u[13] + 48 u[14]
   + 100 u[15] + 25 u[16] + 36 u[17] + 89 u[18] + 74 u[19] + u[20]
   + 31 u[21] + 36 u[22] + 94 u[23] + 16 u[24] + 80 u[25] + 66 u[26]
   + 87 u[27] + 81 u[28] + 99 u[29] + 81 u[30] + 7 u[31] + 59 u[32]
   + 9 u[33] + 64 u[34] + 45 u[35] + 96 u[36] + 44 u[37] + 44 u[38]
   + 18 u[39] + 27 u[40] + 69 u[41] + 14 u[42] + 97 u[43] + 59 u[44]
   + 38 u[45] + 25 u[46] + 25 u[47] + 47 u[48] + 92 u[49] + 38 u[50]
   + 56 u[51] + 57 u[52] + 64 u[53] + 40 u[54] + 3 u[55] + 89 u[56]
   + 42 u[57] + 12 u[58] + 94 u[59] + 48 u[60] + 38 u[61] + 83 u[62]
   + 70 u[63] + 59 u[64] + 40 u[65] + 100 u[66] + 18 u[67] + 32 u[68]
   + 77 u[69] + 93 u[70] + 37 u[71] + 50 u[72] + 99 u[73] + 95 u[74]
   + 92 u[75] + 74 u[76] + 67 u[77] + 20 u[78] + 58 u[79] + 13 u[80]
   + 45 u[81] + 86 u[82] + 49 u[83] + 53 u[84] + 77 u[85] + 23 u[86]
   + 28 u[87] + 22 u[88] + 39 u[89] + 8 u[90] + 20 u[91] + 12 u[92]
   + 19 u[93] + 48 u[94] + 37 u[95] + 21 u[96] + 60 u[97] + 44 u[98]
   + 20 u[99] + 49 u[100] + 100 u[101] + 82 u[102] + 40 u[103] + 37 u[104]
   + 34 u[105] + 31 u[106] + 2 u[107] + 34 u[108] + 9 u[109] + 46 u[110]
   + 19 u[111] + 9 u[112] + 89 u[113] + 13 u[114] + 22 u[115] + 3 u[116]
   + 41 u[117] + 85 u[118] + 20 u[119] + 83 u[120] + 92 u[121] + 31 u[122]
   + 14 u[123] + u[124] + 10 u[125] + 95 u[126] + 87 u[127] + 78 u[128]
   + 39 u[129] + 53 u[130] + 93 u[131] + 82 u[132] + 28 u[133] + 92 u[134]
   + 10 u[135] + 21 u[136] + 42 u[137] + 89 u[138] + 72 u[139] + 11 u[140]
   + 100 u[141] + 3 u[142] + 35 u[143] + 73 u[144] + 70 u[145] + 78 u[146]
   + 43 u[147] + 64 u[148] + 18 u[149] <= 22933
 mccormick1[0]: - u[0] + r[0] <= 0
 mccormick1[1]: - u[1] + r[1] <= 0
 mccormick1[2]: - u[2] + r[2] <= 0
 mccormick1[3]: - u[3] + r[3] <= 0
 mccormick1[4]: - u[4] + r[4] <= 0
 mccormick1[5]: - u[5] + r[5] <= 0
 mccormick1[6]: - u[6] + r[6] <= 0
 mccormick1[7]: - u[7] + r[7] <= 0
 mccormick1[8]: - u[8] + r[8] <= 0
 mccormick1[9]: - u[9] + r[9] <= 0
 mccormick1[10]: - u[10] + r[10] <= 0
 mccormick1[11]: - u[11] + r[11] <= 0
 mccormick1[12]: - u[12] + r[12] <= 0
 mccormick1[13]: - u[13] + r[13] <= 0
 mccormick1[14]: - u[14] + r[14] <= 0
 mccormick1[15]: - u[15] + r[15] <= 0
 mccormick1[16]: - u[16] + r[16] <= 0
 mccormick1[17]: - u[17] + r[17] <= 0
 mccormick1[18]: - u[18] + r[18] <= 0
 mccormick1[19]: - u[19] + r[19] <= 0
 mccormick1[20]: - u[20] + r[20] <= 0
 mccormick1[21]: - u[21] + r[21] <= 0
 mccormick1[22]: - u[22] + r[22] <= 0
 mccormick1[23]: - u[23] + r[23] <= 0
 mccormick1[24]: - u[24] + r[24] <= 0
 mccormick1[25]: - u[25] + r[25] <= 0
 mccormick1[26]: - u[26] + r[26] <= 0
 mccormick1[27]: - u[27] + r[27] <= 0
 mccormick1[28]: - u[28] + r[28] <= 0
 mccormick1[29]: - u[29] + r[29] <= 0
 mccormick1[30]: - u[30] + r[30] <= 0
 mccormick1[31]: - u[31] + r[31] <= 0
 mccormick1[32]: - u[32] + r[32] <= 0
 mccormick1[33]: - u[33] + r[33] <= 0
 mccormick1[34]: - u[34] + r[34] <= 0
 mccormick1[35]: - u[35] + r[35] <= 0
 mccormick1[36]: - u[36] + r[36] <= 0
 mccormick1[37]: - u[37] + r[37] <= 0
 mccormick1[38]: - u[38] + r[38] <= 0
 mccormick1[39]: - u[39] + r[39] <= 0
 mccormick1[40]: - u[40] + r[40] <= 0
 mccormick1[41]: - u[41] + r[41] <= 0
 mccormick1[42]: - u[42] + r[42] <= 0
 mccormick1[43]: - u[43] + r[43] <= 0
 mccormick1[44]: - u[44] + r[44] <= 0
 mccormick1[45]: - u[45] + r[45] <= 0
 mccormick1[46]: - u[46] + r[46] <= 0
 mccormick1[47]: - u[47] + r[47] <= 0
 mccormick1[48]: - u[48] + r[48] <= 0
 mccormick1[49]: - u[49] + r[49] <= 0
 mccormick1[50]: - u[50] + r[50] <= 0
 mccormick1[51]: - u[51] + r[51] <= 0
 mccormick1[52]: - u[52] + r[52] <= 0
 mccormick1[53]: - u[53] + r[53] <= 0
 mccormick1[54]: - u[54] + r[54] <= 0
 mccormick1[55]: - u[55] + r[55] <= 0
 mccormick1[56]: - u[56] + r[56] <= 0
 mccormick1[57]: - u[57] + r[57] <= 0
 mccormick1[58]: - u[58] + r[58] <= 0
 mccormick1[59]: - u[59] + r[59] <= 0
 mccormick1[60]: - u[60] + r[60] <= 0
 mccormick1[61]: - u[61] + r[61] <= 0
 mccormick1[62]: - u[62] + r[62] <= 0
 mccormick1[63]: - u[63] + r[63] <= 0
 mccormick1[64]: - u[64] + r[64] <= 0
 mccormick1[65]: - u[65] + r[65] <= 0
 mccormick1[66]: - u[66] + r[66] <= 0
 mccormick1[67]: - u[67] + r[67] <= 0
 mccormick1[68]: - u[68] + r[68] <= 0
 mccormick1[69]: - u[69] + r[69] <= 0
 mccormick1[70]: - u[70] + r[70] <= 0
 mccormick1[71]: - u[71] + r[71] <= 0
 mccormick1[72]: - u[72] + r[72] <= 0
 mccormick1[73]: - u[73] + r[73] <= 0
 mccormick1[74]: - u[74] + r[74] <= 0
 mccormick1[75]: - u[75] + r[75] <= 0
 mccormick1[76]: - u[76] + r[76] <= 0
 mccormick1[77]: - u[77] + r[77] <= 0
 mccormick1[78]: - u[78] + r[78] <= 0
 mccormick1[79]: - u[79] + r[79] <= 0
 mccormick1[80]: - u[80] + r[80] <= 0
 mccormick1[81]: - u[81] + r[81] <= 0
 mccormick1[82]: - u[82] + r[82] <= 0
 mccormick1[83]: - u[83] + r[83] <= 0
 mccormick1[84]: - u[84] + r[84] <= 0
 mccormick1[85]: - u[85] + r[85] <= 0
 mccormick1[86]: - u[86] + r[86] <= 0
 mccormick1[87]: - u[87] + r[87] <= 0
 mccormick1[88]: - u[88] + r[88] <= 0
 mccormick1[89]: - u[89] + r[89] <= 0
 mccormick1[90]: - u[90] + r[90] <= 0
 mccormick1[91]: - u[91] + r[91] <= 0
 mccormick1[92]: - u[92] + r[92] <= 0
 mccormick1[93]: - u[93] + r[93] <= 0
 mccormick1[94]: - u[94] + r[94] <= 0
 mccormick1[95]: - u[95] + r[95] <= 0
 mccormick1[96]: - u[96] + r[96] <= 0
 mccormick1[97]: - u[97] + r[97] <= 0
 mccormick1[98]: - u[98] + r[98] <= 0
 mccormick1[99]: - u[99] + r[99] <= 0
 mccormick1[100]: - u[100] + r[100] <= 0
 mccormick1[101]: - u[101] + r[101] <= 0
 mccormick1[102]: - u[102] + r[102] <= 0
 mccormick1[103]: - u[103] + r[103] <= 0
 mccormick1[104]: - u[104] + r[104] <= 0
 mccormick1[105]: - u[105] + r[105] <= 0
 mccormick1[106]: - u[106] + r[106] <= 0
 mccormick1[107]: - u[107] + r[107] <= 0
 mccormick1[108]: - u[108] + r[108] <= 0
 mccormick1[109]: - u[109] + r[109] <= 0
 mccormick1[110]: - u[110] + r[110] <= 0
 mccormick1[111]: - u[111] + r[111] <= 0
 mccormick1[112]: - u[112] + r[112] <= 0
 mccormick1[113]: - u[113] + r[113] <= 0
 mccormick1[114]: - u[114] + r[114] <= 0
 mccormick1[115]: - u[115] + r[115] <= 0
 mccormick1[116]: - u[116] + r[116] <= 0
 mccormick1[117]: - u[117] + r[117] <= 0
 mccormick1[118]: - u[118] + r[118] <= 0
 mccormick1[119]: - u[119] + r[119] <= 0
 mccormick1[120]: - u[120] + r[120] <= 0
 mccormick1[121]: - u[121] + r[121] <= 0
 mccormick1[122]: - u[122] + r[122] <= 0
 mccormick1[123]: - u[123] + r[123] <= 0
 mccormick1[124]: - u[124] + r[124] <= 0
 mccormick1[125]: - u[125] + r[125] <= 0
 mccormick1[126]: - u[126] + r[126] <= 0
 mccormick1[127]: - u[127] + r[127] <= 0
 mccormick1[128]: - u[128] + r[128] <= 0
 mccormick1[129]: - u[129] + r[129] <= 0
 mccormick1[130]: - u[130] + r[130] <= 0
 mccormick1[131]: - u[131] + r[131] <= 0
 mccormick1[132]: - u[132] + r[132] <= 0
 mccormick1[133]: - u[133] + r[133] <= 0
 mccormick1[134]: - u[134] + r[134] <= 0
 mccormick1[135]: - u[135] + r[135] <= 0
 mccormick1[136]: - u[136] + r[136] <= 0
 mccormick1[137]: - u[137] + r[137] <= 0
 mccormick1[138]: - u[138] + r[138] <= 0
 mccormick1[139]: - u[139] + r[139] <= 0
 mccormick1[140]: - u[140] + r[140] <= 0
 mccormick1[141]: - u[141] + r[141] <= 0
 mccormick1[142]: - u[142] + r[142] <= 0
 mccormick1[143]: - u[143] + r[143] <= 0
 mccormick1[144]: - u[144] + r[144] <= 0
 mccormick1[145]: - u[145] + r[145] <= 0
 mccormick1[146]: - u[146] + r[146] <= 0
 mccormick1[147]: - u[147] + r[147] <= 0
 mccormick1[148]: - u[148] + r[148] <= 0
 mccormick1[149]: - u[149] + r[149] <= 0
 mccormick2[0]: - x[0] + r[0] <= 0
 mccormick2[1]: - x[1] + r[1] <= 0
 mccormick2[2]: - x[2] + r[2] <= 0
 mccormick2[3]: - x[3] + r[3] <= 0
 mccormick2[4]: - x[4] + r[4] <= 0
 mccormick2[5]: - x[5] + r[5] <= 0
 mccormick2[6]: - x[6] + r[6] <= 0
 mccormick2[7]: - x[7] + r[7] <= 0
 mccormick2[8]: - x[8] + r[8] <= 0
 mccormick2[9]: - x[9] + r[9] <= 0
 mccormick2[10]: - x[10] + r[10] <= 0
 mccormick2[11]: - x[11] + r[11] <= 0
 mccormick2[12]: - x[12] + r[12] <= 0
 mccormick2[13]: - x[13] + r[13] <= 0
 mccormick2[14]: - x[14] + r[14] <= 0
 mccormick2[15]: - x[15] + r[15] <= 0
 mccormick2[16]: - x[16] + r[16] <= 0
 mccormick2[17]: - x[17] + r[17] <= 0
 mccormick2[18]: - x[18] + r[18] <= 0
 mccormick2[19]: - x[19] + r[19] <= 0
 mccormick2[20]: - x[20] + r[20] <= 0
 mccormick2[21]: - x[21] + r[21] <= 0
 mccormick2[22]: - x[22] + r[22] <= 0
 mccormick2[23]: - x[23] + r[23] <= 0
 mccormick2[24]: - x[24] + r[24] <= 0
 mccormick2[25]: - x[25] + r[25] <= 0
 mccormick2[26]: - x[26] + r[26] <= 0
 mccormick2[27]: - x[27] + r[27] <= 0
 mccormick2[28]: - x[28] + r[28] <= 0
 mccormick2[29]: - x[29] + r[29] <= 0
 mccormick2[30]: - x[30] + r[30] <= 0
 mccormick2[31]: - x[31] + r[31] <= 0
 mccormick2[32]: - x[32] + r[32] <= 0
 mccormick2[33]: - x[33] + r[33] <= 0
 mccormick2[34]: - x[34] + r[34] <= 0
 mccormick2[35]: - x[35] + r[35] <= 0
 mccormick2[36]: - x[36] + r[36] <= 0
 mccormick2[37]: - x[37] + r[37] <= 0
 mccormick2[38]: - x[38] + r[38] <= 0
 mccormick2[39]: - x[39] + r[39] <= 0
 mccormick2[40]: - x[40] + r[40] <= 0
 mccormick2[41]: - x[41] + r[41] <= 0
 mccormick2[42]: - x[42] + r[42] <= 0
 mccormick2[43]: - x[43] + r[43] <= 0
 mccormick2[44]: - x[44] + r[44] <= 0
 mccormick2[45]: - x[45] + r[45] <= 0
 mccormick2[46]: - x[46] + r[46] <= 0
 mccormick2[47]: - x[47] + r[47] <= 0
 mccormick2[48]: - x[48] + r[48] <= 0
 mccormick2[49]: - x[49] + r[49] <= 0
 mccormick2[50]: - x[50] + r[50] <= 0
 mccormick2[51]: - x[51] + r[51] <= 0
 mccormick2[52]: - x[52] + r[52] <= 0
 mccormick2[53]: - x[53] + r[53] <= 0
 mccormick2[54]: - x[54] + r[54] <= 0
 mccormick2[55]: - x[55] + r[55] <= 0
 mccormick2[56]: - x[56] + r[56] <= 0
 mccormick2[57]: - x[57] + r[57] <= 0
 mccormick2[58]: - x[58] + r[58] <= 0
 mccormick2[59]: - x[59] + r[59] <= 0
 mccormick2[60]: - x[60] + r[60] <= 0
 mccormick2[61]: - x[61] + r[61] <= 0
 mccormick2[62]: - x[62] + r[62] <= 0
 mccormick2[63]: - x[63] + r[63] <= 0
 mccormick2[64]: - x[64] + r[64] <= 0
 mccormick2[65]: - x[65] + r[65] <= 0
 mccormick2[66]: - x[66] + r[66] <= 0
 mccormick2[67]: - x[67] + r[67] <= 0
 mccormick2[68]: - x[68] + r[68] <= 0
 mccormick2[69]: - x[69] + r[69] <= 0
 mccormick2[70]: - x[70] + r[70] <= 0
 mccormick2[71]: - x[71] + r[71] <= 0
 mccormick2[72]: - x[72] + r[72] <= 0
 mccormick2[73]: - x[73] + r[73] <= 0
 mccormick2[74]: - x[74] + r[74] <= 0
 mccormick2[75]: - x[75] + r[75] <= 0
 mccormick2[76]: - x[76] + r[76] <= 0
 mccormick2[77]: - x[77] + r[77] <= 0
 mccormick2[78]: - x[78] + r[78] <= 0
 mccormick2[79]: - x[79] + r[79] <= 0
 mccormick2[80]: - x[80] + r[80] <= 0
 mccormick2[81]: - x[81] + r[81] <= 0
 mccormick2[82]: - x[82] + r[82] <= 0
 mccormick2[83]: - x[83] + r[83] <= 0
 mccormick2[84]: - x[84] + r[84] <= 0
 mccormick2[85]: - x[85] + r[85] <= 0
 mccormick2[86]: - x[86] + r[86] <= 0
 mccormick2[87]: - x[87] + r[87] <= 0
 mccormick2[88]: - x[88] + r[88] <= 0
 mccormick2[89]: - x[89] + r[89] <= 0
 mccormick2[90]: - x[90] + r[90] <= 0
 mccormick2[91]: - x[91] + r[91] <= 0
 mccormick2[92]: - x[92] + r[92] <= 0
 mccormick2[93]: - x[93] + r[93] <= 0
 mccormick2[94]: - x[94] + r[94] <= 0
 mccormick2[95]: - x[95] + r[95] <= 0
 mccormick2[96]: - x[96] + r[96] <= 0
 mccormick2[97]: - x[97] + r[97] <= 0
 mccormick2[98]: - x[98] + r[98] <= 0
 mccormick2[99]: - x[99] + r[99] <= 0
 mccormick2[100]: - x[100] + r[100] <= 0
 mccormick2[101]: - x[101] + r[101] <= 0
 mccormick2[102]: - x[102] + r[102] <= 0
 mccormick2[103]: - x[103] + r[103] <= 0
 mccormick2[104]: - x[104] + r[104] <= 0
 mccormick2[105]: - x[105] + r[105] <= 0
 mccormick2[106]: - x[106] + r[106] <= 0
 mccormick2[107]: - x[107] + r[107] <= 0
 mccormick2[108]: - x[108] + r[108] <= 0
 mccormick2[109]: - x[109] + r[109] <= 0
 mccormick2[110]: - x[110] + r[110] <= 0
 mccormick2[111]: - x[111] + r[111] <= 0
 mccormick2[112]: - x[112] + r[112] <= 0
 mccormick2[113]: - x[113] + r[113] <= 0
 mccormick2[114]: - x[114] + r[114] <= 0
 mccormick2[115]: - x[115] + r[115] <= 0
 mccormick2[116]: - x[116] + r[116] <= 0
 mccormick2[117]: - x[117] + r[117] <= 0
 mccormick2[118]: - x[118] + r[118] <= 0
 mccormick2[119]: - x[119] + r[119] <= 0
 mccormick2[120]: - x[120] + r[120] <= 0
 mccormick2[121]: - x[121] + r[121] <= 0
 mccormick2[122]: - x[122] + r[122] <= 0
 mccormick2[123]: - x[123] + r[123] <= 0
 mccormick2[124]: - x[124] + r[124] <= 0
 mccormick2[125]: - x[125] + r[125] <= 0
 mccormick2[126]: - x[126] + r[126] <= 0
 mccormick2[127]: - x[127] + r[127] <= 0
 mccormick2[128]: - x[128] + r[128] <= 0
 mccormick2[129]: - x[129] + r[129] <= 0
 mccormick2[130]: - x[130] + r[130] <= 0
 mccormick2[131]: - x[131] + r[131] <= 0
 mccormick2[132]: - x[132] + r[132] <= 0
 mccormick2[133]: - x[133] + r[133] <= 0
 mccormick2[134]: - x[134] + r[134] <= 0
 mccormick2[135]: - x[135] + r[135] <= 0
 mccormick2[136]: - x[136] + r[136] <= 0
 mccormick2[137]: - x[137] + r[137] <= 0
 mccormick2[138]: - x[138] + r[138] <= 0
 mccormick2[139]: - x[139] + r[139] <= 0
 mccormick2[140]: - x[140] + r[140] <= 0
 mccormick2[141]: - x[141] + r[141] <= 0
 mccormick2[142]: - x[142] + r[142] <= 0
 mccormick2[143]: - x[143] + r[143] <= 0
 mccormick2[144]: - x[144] + r[144] <= 0
 mccormick2[145]: - x[145] + r[145] <= 0
 mccormick2[146]: - x[146] + r[146] <= 0
 mccormick2[147]: - x[147] + r[147] <= 0
 mccormick2[148]: - x[148] + r[148] <= 0
 mccormick2[149]: - x[149] + r[149] <= 0
 mccormick3[0]: x[0] + u[0] - r[0] <= 1
 mccormick3[1]: x[1] + u[1] - r[1] <= 1
 mccormick3[2]: x[2] + u[2] - r[2] <= 1
 mccormick3[3]: x[3] + u[3] - r[3] <= 1
 mccormick3[4]: x[4] + u[4] - r[4] <= 1
 mccormick3[5]: x[5] + u[5] - r[5] <= 1
 mccormick3[6]: x[6] + u[6] - r[6] <= 1
 mccormick3[7]: x[7] + u[7] - r[7] <= 1
 mccormick3[8]: x[8] + u[8] - r[8] <= 1
 mccormick3[9]: x[9] + u[9] - r[9] <= 1
 mccormick3[10]: x[10] + u[10] - r[10] <= 1
 mccormick3[11]: x[11] + u[11] - r[11] <= 1
 mccormick3[12]: x[12] + u[12] - r[12] <= 1
 mccormick3[13]: x[13] + u[13] - r[13] <= 1
 mccormick3[14]: x[14] + u[14] - r[14] <= 1
 mccormick3[15]: x[15] + u[15] - r[15] <= 1
 mccormick3[16]: x[16] + u[16] - r[16] <= 1
 mccormick3[17]: x[17] + u[17] - r[17] <= 1
 mccormick3[18]: x[18] + u[18] - r[18] <= 1
 mccormick3[19]: x[19] + u[19] - r[19] <= 1
 mccormick3[20]: x[20] + u[20] - r[20] <= 1
 mccormick3[21]: x[21] + u[21] - r[21] <= 1
 mccormick3[22]: x[22] + u[22] - r[22] <= 1
 mccormick3[23]: x[23] + u[23] - r[23] <= 1
 mccormick3[24]: x[24] + u[24] - r[24] <= 1
 mccormick3[25]: x[25] + u[25] - r[25] <= 1
 mccormick3[26]: x[26] + u[26] - r[26] <= 1
 mccormick3[27]: x[27] + u[27] - r[27] <= 1
 mccormick3[28]: x[28] + u[28] - r[28] <= 1
 mccormick3[29]: x[29] + u[29] - r[29] <= 1
 mccormick3[30]: x[30] + u[30] - r[30] <= 1
 mccormick3[31]: x[31] + u[31] - r[31] <= 1
 mccormick3[32]: x[32] + u[32] - r[32] <= 1
 mccormick3[33]: x[33] + u[33] - r[33] <= 1
 mccormick3[34]: x[34] + u[34] - r[34] <= 1
 mccormick3[35]: x[35] + u[35] - r[35] <= 1
 mccormick3[36]: x[36] + u[36] - r[36] <= 1
 mccormick3[37]: x[37] + u[37] - r[37] <= 1
 mccormick3[38]: x[38] + u[38] - r[38] <= 1
 mccormick3[39]: x[39] + u[39] - r[39] <= 1
 mccormick3[40]: x[40] + u[40] - r[40] <= 1
 mccormick3[41]: x[41] + u[41] - r[41] <= 1
 mccormick3[42]: x[42] + u[42] - r[42] <= 1
 mccormick3[43]: x[43] + u[43] - r[43] <= 1
 mccormick3[44]: x[44] + u[44] - r[44] <= 1
 mccormick3[45]: x[45] + u[45] - r[45] <= 1
 mccormick3[46]: x[46] + u[46] - r[46] <= 1
 mccormick3[47]: x[47] + u[47] - r[47] <= 1
 mccormick3[48]: x[48] + u[48] - r[48] <= 1
 mccormick3[49]: x[49] + u[49] - r[49] <= 1
 mccormick3[50]: x[50] + u[50] - r[50] <= 1
 mccormick3[51]: x[51] + u[51] - r[51] <= 1
 mccormick3[52]: x[52] + u[52] - r[52] <= 1
 mccormick3[53]: x[53] + u[53] - r[53] <= 1
 mccormick3[54]: x[54] + u[54] - r[54] <= 1
 mccormick3[55]: x[55] + u[55] - r[55] <= 1
 mccormick3[56]: x[56] + u[56] - r[56] <= 1
 mccormick3[57]: x[57] + u[57] - r[57] <= 1
 mccormick3[58]: x[58] + u[58] - r[58] <= 1
 mccormick3[59]: x[59] + u[59] - r[59] <= 1
 mccormick3[60]: x[60] + u[60] - r[60] <= 1
 mccormick3[61]: x[61] + u[61] - r[61] <= 1
 mccormick3[62]: x[62] + u[62] - r[62] <= 1
 mccormick3[63]: x[63] + u[63] - r[63] <= 1
 mccormick3[64]: x[64] + u[64] - r[64] <= 1
 mccormick3[65]: x[65] + u[65] - r[65] <= 1
 mccormick3[66]: x[66] + u[66] - r[66] <= 1
 mccormick3[67]: x[67] + u[67] - r[67] <= 1
 mccormick3[68]: x[68] + u[68] - r[68] <= 1
 mccormick3[69]: x[69] + u[69] - r[69] <= 1
 mccormick3[70]: x[70] + u[70] - r[70] <= 1
 mccormick3[71]: x[71] + u[71] - r[71] <= 1
 mccormick3[72]: x[72] + u[72] - r[72] <= 1
 mccormick3[73]: x[73] + u[73] - r[73] <= 1
 mccormick3[74]: x[74] + u[74] - r[74] <= 1
 mccormick3[75]: x[75] + u[75] - r[75] <= 1
 mccormick3[76]: x[76] + u[76] - r[76] <= 1
 mccormick3[77]: x[77] + u[77] - r[77] <= 1
 mccormick3[78]: x[78] + u[78] - r[78] <= 1
 mccormick3[79]: x[79] + u[79] - r[79] <= 1
 mccormick3[80]: x[80] + u[80] - r[80] <= 1
 mccormick3[81]: x[81] + u[81] - r[81] <= 1
 mccormick3[82]: x[82] + u[82] - r[82] <= 1
 mccormick3[83]: x[83] + u[83] - r[83] <= 1
 mccormick3[84]: x[84] + u[84] - r[84] <= 1
 mccormick3[85]: x[85] + u[85] - r[85] <= 1
 mccormick3[86]: x[86] + u[86] - r[86] <= 1
 mccormick3[87]: x[87] + u[87] - r[87] <= 1
 mccormick3[88]: x[88] + u[88] - r[88] <= 1
 mccormick3[89]: x[89] + u[89] - r[89] <= 1
 mccormick3[90]: x[90] + u[90] - r[90] <= 1
 mccormick3[91]: x[91] + u[91] - r[91] <= 1
 mccormick3[92]: x[92] + u[92] - r[92] <= 1
 mccormick3[93]: x[93] + u[93] - r[93] <= 1
 mccormick3[94]: x[94] + u[94] - r[94] <= 1
 mccormick3[95]: x[95] + u[95] - r[95] <= 1
 mccormick3[96]: x[96] + u[96] - r[96] <= 1
 mccormick3[97]: x[97] + u[97] - r[97] <= 1
 mccormick3[98]: x[98] + u[98] - r[98] <= 1
 mccormick3[99]: x[99] + u[99] - r[99] <= 1
 mccormick3[100]: x[100] + u[100] - r[100] <= 1
 mccormick3[101]: x[101] + u[101] - r[101] <= 1
 mccormick3[102]: x[102] + u[102] - r[102] <= 1
 mccormick3[103]: x[103] + u[103] - r[103] <= 1
 mccormick3[104]: x[104] + u[104] - r[104] <= 1
 mccormick3[105]: x[105] + u[105] - r[105] <= 1
 mccormick3[106]: x[106] + u[106] - r[106] <= 1
 mccormick3[107]: x[107] + u[107] - r[107] <= 1
 mccormick3[108]: x[108] + u[108] - r[108] <= 1
 mccormick3[109]: x[109] + u[109] - r[109] <= 1
 mccormick3[110]: x[110] + u[110] - r[110] <= 1
 mccormick3[111]: x[111] + u[111] - r[111] <= 1
 mccormick3[112]: x[112] + u[112] - r[112] <= 1
 mccormick3[113]: x[113] + u[113] - r[113] <= 1
 mccormick3[114]: x[114] + u[114] - r[114] <= 1
 mccormick3[115]: x[115] + u[115] - r[115] <= 1
 mccormick3[116]: x[116] + u[116] - r[116] <= 1
 mccormick3[117]: x[117] + u[117] - r[117] <= 1
 mccormick3[118]: x[118] + u[118] - r[118] <= 1
 mccormick3[119]: x[119] + u[119] - r[119] <= 1
 mccormick3[120]: x[120] + u[120] - r[120] <= 1
 mccormick3[121]: x[121] + u[121] - r[121] <= 1
 mccormick3[122]: x[122] + u[122] - r[122] <= 1
 mccormick3[123]: x[123] + u[123] - r[123] <= 1
 mccormick3[124]: x[124] + u[124] - r[124] <= 1
 mccormick3[125]: x[125] + u[125] - r[125] <= 1
 mccormick3[126]: x[126] + u[126] - r[126] <= 1
 mccormick3[127]: x[127] + u[127] - r[127] <= 1
 mccormick3[128]: x[128] + u[128] - r[128] <= 1
 mccormick3[129]: x[129] + u[129] - r[129] <= 1
 mccormick3[130]: x[130] + u[130] - r[130] <= 1
 mccormick3[131]: x[131] + u[131] - r[131] <= 1
 mccormick3[132]: x[132] + u[132] - r[132] <= 1
 mccormick3[133]: x[133] + u[133] - r[133] <= 1
 mccormick3[134]: x[134] + u[134] - r[134] <= 1
 mccormick3[135]: x[135] + u[135] - r[135] <= 1
 mccormick3[136]: x[136] + u[136] - r[136] <= 1
 mccormick3[137]: x[137] + u[137] - r[137] <= 1
 mccormick3[138]: x[138] + u[138] - r[138] <= 1
 mccormick3[139]: x[139] + u[139] - r[139] <= 1
 mccormick3[140]: x[140] + u[140] - r[140] <= 1
 mccormick3[141]: x[141] + u[141] - r[141] <= 1
 mccormick3[142]: x[142] + u[142] - r[142] <= 1
 mccormick3[143]: x[143] + u[143] - r[143] <= 1
 mccormick3[144]: x[144] + u[144] - r[144] <= 1
 mccormick3[145]: x[145] + u[145] - r[145] <= 1
 mccormick3[146]: x[146] + u[146] - r[146] <= 1
 mccormick3[147]: x[147] + u[147] - r[147] <= 1
 mccormick3[148]: x[148] + u[148] - r[148] <= 1
 mccormick3[149]: x[149] + u[149] - r[149] <= 1
Bounds
Binaries
 x[0] x[1] x[2] x[3] x[4] x[5] x[6] x[7] x[8] x[9] x[10] x[11] x[12] x[13]
 x[14] x[15] x[16] x[17] x[18] x[19] x[20] x[21] x[22] x[23] x[24] x[25]
 x[26] x[27] x[28] x[29] x[30] x[31] x[32] x[33] x[34] x[35] x[36] x[37]
 x[38] x[39] x[40] x[41] x[42] x[43] x[44] x[45] x[46] x[47] x[48] x[49]
 x[50] x[51] x[52] x[53] x[54] x[55] x[56] x[57] x[58] x[59] x[60] x[61]
 x[62] x[63] x[64] x[65] x[66] x[67] x[68] x[69] x[70] x[71] x[72] x[73]
 x[74] x[75] x[76] x[77] x[78] x[79] x[80] x[81] x[82] x[83] x[84] x[85]
 x[86] x[87] x[88] x[89] x[90] x[91] x[92] x[93] x[94] x[95] x[96] x[97]
 x[98] x[99] x[100] x[101] x[102] x[103] x[104] x[105] x[106] x[107] x[108]
 x[109] x[110] x[111] x[112] x[113] x[114] x[115] x[116] x[117] x[118]
 x[119] x[120] x[121] x[122] x[123] x[124] x[125] x[126] x[127] x[128]
 x[129] x[130] x[131] x[132] x[133] x[134] x[135] x[136] x[137] x[138]
 x[139] x[140] x[141] x[142] x[143] x[144] x[145] x[146] x[147] x[148]
 x[149] u[0] u[1] u[2] u[3] u[4] u[5] u[6] u[7] u[8] u[9] u[10] u[11] u[12]
 u[13] u[14] u[15] u[16] u[17] u[18] u[19] u[20] u[21] u[22] u[23] u[24]
 u[25] u[26] u[27] u[28] u[29] u[30] u[31] u[32] u[33] u[34] u[35] u[36]
 u[37] u[38] u[39] u[40] u[41] u[42] u[43] u[44] u[45] u[46] u[47] u[48]
 u[49] u[50] u[51] u[52] u[53] u[54] u[55] u[56] u[57] u[58] u[59] u[60]
 u[61] u[62] u[63] u[64] u[65] u[66] u[67] u[68] u[69] u[70] u[71] u[72]
 u[73] u[74] u[75] u[76] u[77] u[78] u[79] u[80] u[81] u[82] u[83] u[84]
 u[85] u[86] u[87] u[88] u[89] u[90] u[91] u[92] u[93] u[94] u[95] u[96]
 u[97] u[98] u[99] u[100] u[101] u[102] u[103] u[104] u[105] u[106] u[107]
 u[108] u[109] u[110] u[111] u[112] u[113] u[114] u[115] u[116] u[117]
 u[118] u[119] u[120] u[121] u[122] u[123] u[124] u[125] u[126] u[127]
 u[128] u[129] u[130] u[131] u[132] u[133] u[134] u[135] u[136] u[137]
 u[138] u[139] u[140] u[141] u[142] u[143] u[144] u[145] u[146] u[147]
 u[148] u[149] r[0] r[1] r[2] r[3] r[4] r[5] r[6] r[7] r[8] r[9] r[10]
 r[11] r[12] r[13] r[14] r[15] r[16] r[17] r[18] r[19] r[20] r[21] r[22]
 r[23] r[24] r[25] r[26] r[27] r[28] r[29] r[30] r[31] r[32] r[33] r[34]
 r[35] r[36] r[37] r[38] r[39] r[40] r[41] r[42] r[43] r[44] r[45] r[46]
 r[47] r[48] r[49] r[50] r[51] r[52] r[53] r[54] r[55] r[56] r[57] r[58]
 r[59] r[60] r[61] r[62] r[63] r[64] r[65] r[66] r[67] r[68] r[69] r[70]
 r[71] r[72] r[73] r[74] r[75] r[76] r[77] r[78] r[79] r[80] r[81] r[82]
 r[83] r[84] r[85] r[86] r[87] r[88] r[89] r[90] r[91] r[92] r[93] r[94]
 r[95] r[96] r[97] r[98] r[99] r[100] r[101] r[102] r[103] r[104] r[105]
 r[106] r[107] r[108] r[109] r[110] r[111] r[112] r[113] r[114] r[115]
 r[116] r[117] r[118] r[119] r[120] r[121] r[122] r[123] r[124] r[125]
 r[126] r[127] r[128] r[129] r[130] r[131] r[132] r[133] r[134] r[135]
 r[136] r[137] r[138] r[139] r[140] r[141] r[142] r[143] r[144] r[145]
 r[146] r[147] r[148] r[149]
End
