instances/knapsack/discrete_knapsack_uncertainty/knapsack_150_8.kp
14653
150
750

43 4.3 48
16 1.6 80
62 6.2 54
83 8.3 18
96 9.6 75
13 1.3 3
93 9.3 83
19 1.9 61
69 6.9 60
98 9.8 20
71 7.1 93
11 1.1 33
100 10.0 73
8 0.8 32
68 6.8 93
44 4.4 54
53 5.3 68
92 9.2 8
1 0.1 32
22 2.2 91
93 9.3 19
91 9.1 25
44 4.4 30
98 9.8 78
56 5.6 91
60 6.0 88
54 5.4 50
67 6.7 69
57 5.7 64
23 2.3 58
1 0.1 19
67 6.7 74
55 5.5 2
29 2.9 1
92 9.2 89
57 5.7 35
40 4.0 87
64 6.4 97
12 1.2 12
50 5.0 89
31 3.1 98
45 4.5 43
38 3.8 31
45 4.5 17
91 9.1 36
14 1.4 25
81 8.1 42
1 0.1 94
35 3.5 10
32 3.2 27
54 5.4 53
68 6.8 12
41 4.1 65
36 3.6 63
8 0.8 18
63 6.3 24
53 5.3 28
42 4.2 6
4 0.4 42
58 5.8 45
36 3.6 2
14 1.4 48
15 1.5 47
98 9.8 95
55 5.5 20
8 0.8 63
40 4.0 39
34 3.4 35
28 2.8 82
77 7.7 15
33 3.3 51
53 5.3 33
42 4.2 43
79 7.9 31
75 7.5 92
68 6.8 100
62 6.2 56
47 4.7 51
96 9.6 14
10 1.0 73
1 0.1 49
37 3.7 88
10 1.0 75
65 6.5 48
29 2.9 71
81 8.1 14
55 5.5 32
4 0.4 97
94 9.4 82
71 7.1 80
20 2.0 56
64 6.4 75
24 2.4 71
11 1.1 34
72 7.2 98
45 4.5 36
69 6.9 7
88 8.8 18
72 7.2 42
8 0.8 94
89 8.9 34
40 4.0 83
82 8.2 36
20 2.0 75
97 9.7 37
42 4.2 25
31 3.1 28
30 3.0 74
82 8.2 52
65 6.5 98
54 5.4 51
83 8.3 52
69 6.9 59
49 4.9 13
57 5.7 56
62 6.2 59
35 3.5 33
81 8.1 43
41 4.1 32
96 9.6 33
55 5.5 11
16 1.6 36
83 8.3 100
82 8.2 89
85 8.5 77
62 6.2 78
63 6.3 82
27 2.7 44
98 9.8 53
63 6.3 30
77 7.7 76
37 3.7 29
54 5.4 34
72 7.2 52
88 8.8 47
62 6.2 85
73 7.3 74
2 0.2 55
89 8.9 21
28 2.8 51
67 6.7 40
80 8.0 58
27 2.7 3
27 2.7 69
93 9.3 34
74 7.4 68
42 4.2 23
15 1.5 45
68 6.8 42
66 6.6 64

22933
702

[0.14278135959582225 2.34141346710347 1.990947078516133 2.285115231606317 1.2300272537292816 1.1109458447730036 0.03347736919754399 2.729494160079619 0.652637115594754 3.801753443252853 1.6871099297046028 0.7755373147256448 3.952651758291874 3.65150074254604 1.491466297823996 4.6516572783929995 1.0286128565578778 2.941542856999187 3.007452186505905 4.4838462634231515 2.6109026799730155 4.133299703466447 0.5587979730351178 4.387592341552507 0.06481875550912883 2.581092389893698 3.902783932937986 4.534402427362256 3.6695488711581454 3.2668297867674045 1.8199779064578228 4.567691462936671 2.264440865567876 4.1224667158983275 2.196372787955187 4.339200546374202 0.8220379134259884 0.21504363945614857 2.3330556632521757 0.7994183906694591 3.2551744410673265 3.5367048907466967 0.16768922083925447 0.722701413183934 0.11111313402625252 3.4426825548757516 0.5116192709953347 4.008995991724206 2.4496988384912997 2.4009110685057253 3.664602514596524 3.7843832810985596 0.6353830284535067 1.9711914764892406 0.2537901557604364 2.753829842277077 2.5903442554013147 0.1852992804450237 2.5484273080416484 2.0513908157944423 0.8712284376183359 2.6608127593452187 1.6464799530466783 2.223791923126899 0.6375520770586486 2.3084747374894508 2.56722914069826 4.638554511660742 4.398496418552701 0.796836791248998 4.025295648461514 2.039246104251477 0.14098919918497424 1.2189979275314702 1.7181423753183025 0.4323960097830524 2.4947343473994654 2.749417570327614 3.666626048252161 3.670840647240466 0.9919554061848881 4.636121933774913 0.22230962816940164 0.5988038364432375 1.9768310801989146 2.963453675723148 0.8460146082497834 2.2891015094622307 4.227014906004536 1.690857197665903 0.08040978598466662 0.5160951396872125 4.480447510371605 2.7818152056133525 4.139155814519749 4.537094718730202 2.866078357781362 3.6967289868022037 1.283678991292546 4.030502950870341 0.7702544911982528 2.415168898840134 3.019013528415071 2.9187363380428852 1.0916737078413659 1.1216194992045039 2.1190567819760755 3.020370464396312 1.3917872566110945 0.34833403956225084 2.6458091084251745 1.2580575239750422 1.7831081773418878 0.7801829659689793 2.8734647255478483 2.6590876011841487 2.3573977959878363 4.613036337514227 1.7118126663242086 3.295876670445771 4.204724652592154 4.000073480603857 4.409782659734537 2.2113152064503856 2.4385791316903527 4.630932281098613 1.943176217363721 1.6554715741494563 0.3879626556751494 4.556278014997656 2.1138133224482143 3.97686178370726 2.0932139422507965 4.548098414684228 2.737462255694104 1.2654883976007114 0.9563275460290903 2.444902670040704 0.622091646808846 0.02903949622157702 2.3074312109528146 3.724609373323405 3.4753482118806303 1.2515118011241695 2.250662379930143 1.812605788595975 4.458618677974119 0.3295296657118935 3.3276626837880077 1.0482873099299996]

[23 84 6 67 4 9 37 11 61 86 23 67 96 40 48 100 25 36 89 74 1 31 36 94 16 80 66 87 81 99 81 7 59 9 64 45 96 44 44 18 27 69 14 97 59 38 25 25 47 92 38 56 57 64 40 3 89 42 12 94 48 38 83 70 59 40 100 18 32 77 93 37 50 99 95 92 74 67 20 58 13 45 86 49 53 77 23 28 22 39 8 20 12 19 48 37 21 60 44 20 49 100 82 40 37 34 31 2 34 9 46 19 9 89 13 22 3 41 85 20 83 92 31 14 1 10 95 87 78 39 53 93 82 28 92 10 21 42 89 72 11 100 3 35 73 70 78 43 64 18]
